% seed = 0

mint = 32;
% maxt = 89;

nActs = 32;
dur = [0,4,2,3,2,3,3,3,4,3,3,3,5,4,2,2,2,1,2,2,6,3,3,2,3,2,2,2,4,4,5,0];

nSkills = 15;
sreq = [| 0,0,0,0,0,0,0,0,0,0,0,0,0,0,0,
	| 0,0,0,0,0,1,0,0,2,0,0,0,0,0,0,
	| 0,0,0,0,0,0,0,1,0,0,0,0,0,0,0,
	| 0,0,0,0,0,1,0,0,0,0,2,0,0,0,0,
	| 0,0,1,0,1,0,0,0,1,0,0,1,0,0,0,
	| 0,0,0,1,0,0,0,0,0,0,0,0,0,0,0,
	| 0,0,0,1,0,0,1,0,1,0,0,0,0,1,0,
	| 0,0,2,1,0,0,1,0,0,0,0,2,0,1,1,
	| 0,0,1,1,0,0,0,0,1,0,1,1,0,0,0,
	| 0,0,0,0,0,0,0,0,0,1,0,1,0,1,0,
	| 0,0,0,0,0,1,0,0,1,0,0,0,0,0,0,
	| 0,0,0,0,0,2,0,0,1,1,0,2,0,0,0,
	| 0,1,1,0,1,1,0,0,0,0,0,1,0,0,1,
	| 0,0,1,1,0,0,0,0,0,0,0,0,0,0,0,
	| 0,0,1,0,1,0,0,0,0,0,0,1,0,0,0,
	| 0,0,0,0,0,0,0,0,1,0,1,0,0,0,0,
	| 0,0,0,0,0,1,0,0,0,0,0,0,0,0,0,
	| 0,0,1,0,1,1,0,0,2,0,0,2,0,1,0,
	| 0,0,1,0,0,1,0,0,2,0,1,1,0,0,1,
	| 0,0,1,0,0,0,0,0,0,0,0,1,0,0,0,
	| 0,0,0,1,1,1,0,0,2,0,0,0,0,0,0,
	| 0,0,1,0,1,1,0,0,2,1,0,0,1,0,0,
	| 0,0,1,0,0,0,0,0,0,0,0,0,0,0,0,
	| 0,0,1,1,0,1,0,0,1,2,0,0,0,0,0,
	| 0,0,0,1,0,1,0,0,0,1,0,0,1,1,0,
	| 0,0,0,0,0,0,0,0,0,0,0,1,0,0,1,
	| 1,0,0,0,0,0,0,0,1,0,0,1,0,0,1,
	| 0,0,3,2,0,0,0,0,1,1,0,0,0,0,0,
	| 0,1,2,0,0,1,1,0,0,0,1,0,0,0,1,
	| 0,1,0,0,0,1,0,0,2,0,1,0,1,0,1,
	| 0,0,0,0,1,0,0,0,0,0,0,0,0,0,0,
	| 0,0,0,0,0,0,0,0,0,0,0,0,0,0,0, |];

% SumOfsreq = 123;

nResources = 26;
mastery = [| false,false,true,false,false,false,false,false,false,false,false,false,false,false,false,
	| false,false,true,false,false,false,false,false,false,false,false,false,false,false,false,
	| false,false,false,false,false,false,false,false,false,false,false,false,false,false,true,
	| false,false,false,false,false,false,false,false,false,false,false,true,false,false,false,
	| false,false,false,true,true,true,false,false,false,false,false,false,false,false,false,
	| false,false,false,false,false,false,false,false,false,true,true,true,false,false,false,
	| false,false,false,false,false,false,true,true,true,true,true,true,false,false,false,
	| false,false,false,false,false,false,false,false,false,false,false,false,true,true,true,
	| false,false,false,false,false,false,true,true,true,false,false,false,false,true,true,
	| false,false,false,false,false,false,false,false,false,false,false,true,false,false,false,
	| true,true,true,false,false,false,false,false,false,false,false,false,false,false,false,
	| false,false,false,false,false,false,false,false,true,false,false,false,false,false,false,
	| false,false,false,false,false,false,false,false,false,true,true,true,false,false,false,
	| false,false,false,false,false,true,false,false,false,false,false,false,false,false,false,
	| false,false,false,false,false,false,false,false,false,true,true,true,false,false,false,
	| false,false,false,false,false,true,false,false,false,false,false,false,false,false,false,
	| false,false,false,false,false,false,false,false,false,false,true,true,true,true,true,
	| false,false,false,true,true,true,false,false,false,false,false,false,false,false,false,
	| false,false,false,true,true,true,false,false,false,false,true,true,false,false,false,
	| false,false,true,true,true,true,false,false,false,false,false,false,false,false,false,
	| false,false,false,false,false,false,true,true,true,false,false,false,false,false,false,
	| false,true,true,false,false,false,false,false,false,false,false,true,false,false,false,
	| false,true,true,false,false,false,false,false,false,false,false,false,false,false,false,
	| false,false,false,true,true,true,false,false,false,false,false,false,false,false,false,
	| false,false,false,false,false,false,false,false,true,false,false,false,false,false,false,
	| false,false,false,false,false,false,false,false,false,false,false,true,false,false,false, |];

nPrecs = 68;
pred = [1,1,1,2,2,3,3,3,4,4,4,5,5,5,6,6,7,7,7,8,8,8,9,9,9,10,10,10,11,11,11,12,12,13,13,13,14,14,14,15,15,15,16,17,17,17,18,19,19,20,20,21,21,22,22,23,24,24,25,26,26,27,27,27,28,29,30,31];
succ = [2,3,4,5,6,9,22,24,9,13,5,10,15,7,9,7,16,12,8,17,11,14,25,18,19,26,27,23,19,21,22,21,14,25,14,16,18,19,24,20,30,16,26,18,20,21,27,27,28,25,22,23,24,28,23,31,26,30,29,28,31,29,30,31,29,32,32,32];

nUnrels = 162;
unpred = [2,2,2,3,3,3,3,3,3,3,3,3,3,3,3,3,3,3,4,5,5,5,6,6,6,7,7,7,7,8,8,8,8,8,8,9,9,9,9,9,9,9,9,9,9,9,9,9,9,10,10,10,10,10,10,10,10,10,10,10,10,10,10,11,11,11,11,11,11,11,11,11,12,12,12,12,12,12,12,13,13,13,13,13,13,14,14,14,14,14,14,14,14,15,15,15,15,15,15,16,16,16,16,16,16,16,16,16,16,16,17,18,18,18,18,18,18,18,18,18,19,19,19,19,19,19,19,20,20,20,20,20,21,21,21,22,22,22,22,22,23,23,23,23,23,23,23,24,24,25,25,25,25,25,26,26,27,28,28,29,29,30];
unsucc = [3,4,13,4,5,6,7,8,10,11,12,13,14,15,16,17,20,21,6,6,9,13,10,13,15,9,10,13,15,9,10,12,13,15,16,10,11,12,13,14,15,16,17,20,21,22,23,24,26,11,12,13,14,15,16,17,18,19,20,21,22,24,25,12,13,14,15,16,17,18,20,25,13,15,16,17,20,22,25,15,17,20,21,22,23,15,16,17,20,21,22,23,25,17,18,19,21,24,27,17,18,19,20,21,22,23,24,25,27,30,19,19,20,21,22,23,24,25,26,28,20,21,22,23,24,25,26,21,24,26,27,30,22,25,27,24,25,26,27,30,24,25,26,27,28,29,30,25,27,26,27,28,30,31,27,30,28,30,31,30,31,31];

USEFUL_RES = [{},
	{5,7,9,12,14,16,18,19,20,21,24,25},
	{7,9,21},
	{5,6,7,13,14,15,16,17,18,19,20,24},
	{1,2,4,5,6,7,9,10,11,12,13,15,17,18,19,20,21,22,23,24,25,26},
	{5,18,19,20,24},
	{5,7,8,9,12,17,18,19,20,21,24,25},
	{1,2,3,4,5,6,7,8,9,10,11,13,15,17,18,19,20,21,22,23,24,26},
	{1,2,4,5,6,7,9,10,11,12,13,15,17,18,19,20,21,22,23,24,25,26},
	{4,6,7,8,9,10,13,15,17,19,22,26},
	{5,7,9,12,14,16,18,19,20,21,24,25},
	{4,5,6,7,9,10,12,13,14,15,16,17,18,19,20,21,22,24,25,26},
	{1,2,3,4,5,6,7,8,9,10,11,13,14,15,16,17,18,19,20,22,23,24,26},
	{1,2,5,11,18,19,20,22,23,24},
	{1,2,4,5,6,7,10,11,13,15,17,18,19,20,22,23,24,26},
	{6,7,9,12,13,15,17,19,21,25},
	{5,14,16,18,19,20,24},
	{1,2,4,5,6,7,8,9,10,11,12,13,14,15,16,17,18,19,20,21,22,23,24,25,26},
	{1,2,3,4,5,6,7,8,9,10,11,12,13,14,15,16,17,18,19,20,21,22,23,24,25,26},
	{1,2,4,6,7,10,11,13,15,17,19,20,22,23,26},
	{5,7,9,12,14,16,18,19,20,21,24,25},
	{1,2,5,6,7,8,9,11,12,13,14,15,16,17,18,19,20,21,22,23,24,25},
	{1,2,11,20,22,23},
	{1,2,5,6,7,9,11,12,13,14,15,16,18,19,20,21,22,23,24,25},
	{5,6,7,8,9,13,14,15,16,17,18,19,20,24},
	{3,4,6,7,8,9,10,13,15,17,19,22,26},
	{3,4,6,7,8,9,10,11,12,13,15,17,19,21,22,25,26},
	{1,2,5,6,7,9,11,12,13,15,18,19,20,21,22,23,24,25},
	{1,2,3,5,6,7,8,9,11,13,14,15,16,17,18,19,20,21,22,23,24},
	{3,5,6,7,8,9,11,12,13,14,15,16,17,18,19,20,21,22,23,24,25},
	{5,18,19,20,24},
	{}];

POTENTIAL_ACT = [{5,8,9,13,14,15,18,19,20,22,23,24,28,29},
	{5,8,9,13,14,15,18,19,20,22,23,24,28,29},
	{8,13,19,26,27,29,30},
	{5,8,9,10,12,13,15,18,19,20,26,27},
	{2,4,5,6,7,8,9,11,12,13,14,15,17,18,19,21,22,24,25,28,29,30,31},
	{4,5,8,9,10,12,13,15,16,18,19,20,22,24,25,26,27,28,29,30},
	{2,3,4,5,7,8,9,10,11,12,13,15,16,18,19,20,21,22,24,25,26,27,28,29,30},
	{7,8,10,13,18,19,22,25,26,27,29,30},
	{2,3,5,7,8,9,10,11,12,13,16,18,19,21,22,24,25,26,27,28,29,30},
	{5,8,9,10,12,13,15,18,19,20,26,27},
	{5,8,9,13,14,15,18,19,20,22,23,24,27,28,29,30},
	{2,5,7,9,11,12,16,18,19,21,22,24,27,28,30},
	{4,5,8,9,10,12,13,15,16,18,19,20,22,24,25,26,27,28,29,30},
	{2,4,11,12,13,17,18,19,21,22,24,25,29,30},
	{4,5,8,9,10,12,13,15,16,18,19,20,22,24,25,26,27,28,29,30},
	{2,4,11,12,13,17,18,19,21,22,24,25,29,30},
	{4,5,7,8,9,10,12,13,15,16,18,19,20,22,25,26,27,29,30},
	{2,4,5,6,7,8,9,11,12,13,14,15,17,18,19,21,22,24,25,28,29,30,31},
	{2,4,5,6,7,8,9,10,11,12,13,14,15,16,17,18,19,20,21,22,24,25,26,27,28,29,30,31},
	{2,4,5,6,7,8,9,11,12,13,14,15,17,18,19,20,21,22,23,24,25,28,29,30,31},
	{2,3,5,7,8,9,11,12,16,18,19,21,22,24,27,28,29,30},
	{5,8,9,10,12,13,14,15,18,19,20,22,23,24,26,27,28,29,30},
	{5,8,9,13,14,15,18,19,20,22,23,24,28,29,30},
	{2,4,5,6,7,8,9,11,12,13,14,15,17,18,19,21,22,24,25,28,29,30,31},
	{2,5,7,9,11,12,16,18,19,21,22,24,27,28,30},
	{5,8,9,10,12,13,15,18,19,20,26,27}];
